c File: flat75_3_0.col
c
c SOURCE: Joseph Culberson (joe@cs.ualberta.ca)
c DESCRIPTION: Quasi-random coloring problem
c              generated with flatness = 0
c                             probability = 0.096
c                             known coloring = 3
c                             random seed = 1044
c              Creation Date:  Wed Feb 24 10:41:59 1999
c Maximum degree = 8 Minimum degree = 1
c COLOR VERIFICATION: Using the permuted order
c under simple greedy yields the specified
c coloring number
c Color = 3 specified partitions = 3
c p edge 75 180
c cnf created by edge2cnf
p cnf 225 840
-1 -2 0
-1 -3 0
-2 -3 0
1 2 3 0
-4 -5 0
-4 -6 0
-5 -6 0
4 5 6 0
-7 -8 0
-7 -9 0
-8 -9 0
7 8 9 0
-10 -11 0
-10 -12 0
-11 -12 0
10 11 12 0
-13 -14 0
-13 -15 0
-14 -15 0
13 14 15 0
-16 -17 0
-16 -18 0
-17 -18 0
16 17 18 0
-19 -20 0
-19 -21 0
-20 -21 0
19 20 21 0
-22 -23 0
-22 -24 0
-23 -24 0
22 23 24 0
-25 -26 0
-25 -27 0
-26 -27 0
25 26 27 0
-28 -29 0
-28 -30 0
-29 -30 0
28 29 30 0
-31 -32 0
-31 -33 0
-32 -33 0
31 32 33 0
-34 -35 0
-34 -36 0
-35 -36 0
34 35 36 0
-37 -38 0
-37 -39 0
-38 -39 0
37 38 39 0
-40 -41 0
-40 -42 0
-41 -42 0
40 41 42 0
-43 -44 0
-43 -45 0
-44 -45 0
43 44 45 0
-46 -47 0
-46 -48 0
-47 -48 0
46 47 48 0
-49 -50 0
-49 -51 0
-50 -51 0
49 50 51 0
-52 -53 0
-52 -54 0
-53 -54 0
52 53 54 0
-55 -56 0
-55 -57 0
-56 -57 0
55 56 57 0
-58 -59 0
-58 -60 0
-59 -60 0
58 59 60 0
-61 -62 0
-61 -63 0
-62 -63 0
61 62 63 0
-64 -65 0
-64 -66 0
-65 -66 0
64 65 66 0
-67 -68 0
-67 -69 0
-68 -69 0
67 68 69 0
-70 -71 0
-70 -72 0
-71 -72 0
70 71 72 0
-73 -74 0
-73 -75 0
-74 -75 0
73 74 75 0
-76 -77 0
-76 -78 0
-77 -78 0
76 77 78 0
-79 -80 0
-79 -81 0
-80 -81 0
79 80 81 0
-82 -83 0
-82 -84 0
-83 -84 0
82 83 84 0
-85 -86 0
-85 -87 0
-86 -87 0
85 86 87 0
-88 -89 0
-88 -90 0
-89 -90 0
88 89 90 0
-91 -92 0
-91 -93 0
-92 -93 0
91 92 93 0
-94 -95 0
-94 -96 0
-95 -96 0
94 95 96 0
-97 -98 0
-97 -99 0
-98 -99 0
97 98 99 0
-100 -101 0
-100 -102 0
-101 -102 0
100 101 102 0
-103 -104 0
-103 -105 0
-104 -105 0
103 104 105 0
-106 -107 0
-106 -108 0
-107 -108 0
106 107 108 0
-109 -110 0
-109 -111 0
-110 -111 0
109 110 111 0
-112 -113 0
-112 -114 0
-113 -114 0
112 113 114 0
-115 -116 0
-115 -117 0
-116 -117 0
115 116 117 0
-118 -119 0
-118 -120 0
-119 -120 0
118 119 120 0
-121 -122 0
-121 -123 0
-122 -123 0
121 122 123 0
-124 -125 0
-124 -126 0
-125 -126 0
124 125 126 0
-127 -128 0
-127 -129 0
-128 -129 0
127 128 129 0
-130 -131 0
-130 -132 0
-131 -132 0
130 131 132 0
-133 -134 0
-133 -135 0
-134 -135 0
133 134 135 0
-136 -137 0
-136 -138 0
-137 -138 0
136 137 138 0
-139 -140 0
-139 -141 0
-140 -141 0
139 140 141 0
-142 -143 0
-142 -144 0
-143 -144 0
142 143 144 0
-145 -146 0
-145 -147 0
-146 -147 0
145 146 147 0
-148 -149 0
-148 -150 0
-149 -150 0
148 149 150 0
-151 -152 0
-151 -153 0
-152 -153 0
151 152 153 0
-154 -155 0
-154 -156 0
-155 -156 0
154 155 156 0
-157 -158 0
-157 -159 0
-158 -159 0
157 158 159 0
-160 -161 0
-160 -162 0
-161 -162 0
160 161 162 0
-163 -164 0
-163 -165 0
-164 -165 0
163 164 165 0
-166 -167 0
-166 -168 0
-167 -168 0
166 167 168 0
-169 -170 0
-169 -171 0
-170 -171 0
169 170 171 0
-172 -173 0
-172 -174 0
-173 -174 0
172 173 174 0
-175 -176 0
-175 -177 0
-176 -177 0
175 176 177 0
-178 -179 0
-178 -180 0
-179 -180 0
178 179 180 0
-181 -182 0
-181 -183 0
-182 -183 0
181 182 183 0
-184 -185 0
-184 -186 0
-185 -186 0
184 185 186 0
-187 -188 0
-187 -189 0
-188 -189 0
187 188 189 0
-190 -191 0
-190 -192 0
-191 -192 0
190 191 192 0
-193 -194 0
-193 -195 0
-194 -195 0
193 194 195 0
-196 -197 0
-196 -198 0
-197 -198 0
196 197 198 0
-199 -200 0
-199 -201 0
-200 -201 0
199 200 201 0
-202 -203 0
-202 -204 0
-203 -204 0
202 203 204 0
-205 -206 0
-205 -207 0
-206 -207 0
205 206 207 0
-208 -209 0
-208 -210 0
-209 -210 0
208 209 210 0
-211 -212 0
-211 -213 0
-212 -213 0
211 212 213 0
-214 -215 0
-214 -216 0
-215 -216 0
214 215 216 0
-217 -218 0
-217 -219 0
-218 -219 0
217 218 219 0
-220 -221 0
-220 -222 0
-221 -222 0
220 221 222 0
-223 -224 0
-223 -225 0
-224 -225 0
223 224 225 0
-100 -1 0
-101 -2 0
-102 -3 0
-124 -1 0
-125 -2 0
-126 -3 0
-136 -1 0
-137 -2 0
-138 -3 0
-154 -1 0
-155 -2 0
-156 -3 0
-187 -1 0
-188 -2 0
-189 -3 0
-25 -4 0
-26 -5 0
-27 -6 0
-73 -4 0
-74 -5 0
-75 -6 0
-169 -4 0
-170 -5 0
-171 -6 0
-52 -7 0
-53 -8 0
-54 -9 0
-37 -10 0
-38 -11 0
-39 -12 0
-115 -10 0
-116 -11 0
-117 -12 0
-175 -10 0
-176 -11 0
-177 -12 0
-181 -10 0
-182 -11 0
-183 -12 0
-184 -10 0
-185 -11 0
-186 -12 0
-187 -10 0
-188 -11 0
-189 -12 0
-208 -10 0
-209 -11 0
-210 -12 0
-220 -10 0
-221 -11 0
-222 -12 0
-55 -13 0
-56 -14 0
-57 -15 0
-124 -13 0
-125 -14 0
-126 -15 0
-130 -13 0
-131 -14 0
-132 -15 0
-142 -13 0
-143 -14 0
-144 -15 0
-208 -13 0
-209 -14 0
-210 -15 0
-211 -13 0
-212 -14 0
-213 -15 0
-22 -16 0
-23 -17 0
-24 -18 0
-25 -16 0
-26 -17 0
-27 -18 0
-55 -16 0
-56 -17 0
-57 -18 0
-166 -16 0
-167 -17 0
-168 -18 0
-187 -16 0
-188 -17 0
-189 -18 0
-190 -16 0
-191 -17 0
-192 -18 0
-112 -19 0
-113 -20 0
-114 -21 0
-175 -19 0
-176 -20 0
-177 -21 0
-52 -22 0
-53 -23 0
-54 -24 0
-142 -22 0
-143 -23 0
-144 -24 0
-202 -22 0
-203 -23 0
-204 -24 0
-55 -25 0
-56 -26 0
-57 -27 0
-76 -25 0
-77 -26 0
-78 -27 0
-79 -25 0
-80 -26 0
-81 -27 0
-103 -25 0
-104 -26 0
-105 -27 0
-196 -25 0
-197 -26 0
-198 -27 0
-208 -25 0
-209 -26 0
-210 -27 0
-64 -28 0
-65 -29 0
-66 -30 0
-82 -28 0
-83 -29 0
-84 -30 0
-139 -28 0
-140 -29 0
-141 -30 0
-34 -31 0
-35 -32 0
-36 -33 0
-37 -31 0
-38 -32 0
-39 -33 0
-40 -31 0
-41 -32 0
-42 -33 0
-112 -31 0
-113 -32 0
-114 -33 0
-115 -31 0
-116 -32 0
-117 -33 0
-175 -31 0
-176 -32 0
-177 -33 0
-178 -31 0
-179 -32 0
-180 -33 0
-214 -31 0
-215 -32 0
-216 -33 0
-139 -34 0
-140 -35 0
-141 -36 0
-148 -34 0
-149 -35 0
-150 -36 0
-220 -34 0
-221 -35 0
-222 -36 0
-40 -37 0
-41 -38 0
-42 -39 0
-79 -37 0
-80 -38 0
-81 -39 0
-124 -37 0
-125 -38 0
-126 -39 0
-154 -37 0
-155 -38 0
-156 -39 0
-181 -37 0
-182 -38 0
-183 -39 0
-130 -40 0
-131 -41 0
-132 -42 0
-160 -40 0
-161 -41 0
-162 -42 0
-169 -40 0
-170 -41 0
-171 -42 0
-172 -40 0
-173 -41 0
-174 -42 0
-190 -40 0
-191 -41 0
-192 -42 0
-217 -40 0
-218 -41 0
-219 -42 0
-103 -43 0
-104 -44 0
-105 -45 0
-127 -43 0
-128 -44 0
-129 -45 0
-172 -43 0
-173 -44 0
-174 -45 0
-199 -43 0
-200 -44 0
-201 -45 0
-211 -43 0
-212 -44 0
-213 -45 0
-223 -43 0
-224 -44 0
-225 -45 0
-67 -46 0
-68 -47 0
-69 -48 0
-166 -46 0
-167 -47 0
-168 -48 0
-220 -46 0
-221 -47 0
-222 -48 0
-121 -49 0
-122 -50 0
-123 -51 0
-157 -49 0
-158 -50 0
-159 -51 0
-217 -49 0
-218 -50 0
-219 -51 0
-115 -52 0
-116 -53 0
-117 -54 0
-175 -52 0
-176 -53 0
-177 -54 0
-148 -55 0
-149 -56 0
-150 -57 0
-79 -58 0
-80 -59 0
-81 -60 0
-109 -58 0
-110 -59 0
-111 -60 0
-166 -58 0
-167 -59 0
-168 -60 0
-169 -58 0
-170 -59 0
-171 -60 0
-115 -61 0
-116 -62 0
-117 -63 0
-181 -61 0
-182 -62 0
-183 -63 0
-193 -61 0
-194 -62 0
-195 -63 0
-76 -67 0
-77 -68 0
-78 -69 0
-145 -67 0
-146 -68 0
-147 -69 0
-157 -67 0
-158 -68 0
-159 -69 0
-175 -67 0
-176 -68 0
-177 -69 0
-76 -70 0
-77 -71 0
-78 -72 0
-133 -73 0
-134 -74 0
-135 -75 0
-163 -73 0
-164 -74 0
-165 -75 0
-79 -76 0
-80 -77 0
-81 -78 0
-97 -76 0
-98 -77 0
-99 -78 0
-118 -76 0
-119 -77 0
-120 -78 0
-136 -76 0
-137 -77 0
-138 -78 0
-178 -76 0
-179 -77 0
-180 -78 0
-118 -79 0
-119 -80 0
-120 -81 0
-130 -79 0
-131 -80 0
-132 -81 0
-151 -79 0
-152 -80 0
-153 -81 0
-139 -82 0
-140 -83 0
-141 -84 0
-160 -82 0
-161 -83 0
-162 -84 0
-196 -82 0
-197 -83 0
-198 -84 0
-211 -82 0
-212 -83 0
-213 -84 0
-103 -85 0
-104 -86 0
-105 -87 0
-121 -85 0
-122 -86 0
-123 -87 0
-199 -85 0
-200 -86 0
-201 -87 0
-109 -88 0
-110 -89 0
-111 -90 0
-124 -88 0
-125 -89 0
-126 -90 0
-196 -88 0
-197 -89 0
-198 -90 0
-202 -88 0
-203 -89 0
-204 -90 0
-94 -91 0
-95 -92 0
-96 -93 0
-127 -91 0
-128 -92 0
-129 -93 0
-139 -91 0
-140 -92 0
-141 -93 0
-97 -94 0
-98 -95 0
-99 -96 0
-121 -94 0
-122 -95 0
-123 -96 0
-127 -94 0
-128 -95 0
-129 -96 0
-142 -94 0
-143 -95 0
-144 -96 0
-145 -94 0
-146 -95 0
-147 -96 0
-184 -94 0
-185 -95 0
-186 -96 0
-103 -97 0
-104 -98 0
-105 -99 0
-184 -97 0
-185 -98 0
-186 -99 0
-142 -100 0
-143 -101 0
-144 -102 0
-163 -100 0
-164 -101 0
-165 -102 0
-190 -100 0
-191 -101 0
-192 -102 0
-109 -106 0
-110 -107 0
-111 -108 0
-127 -106 0
-128 -107 0
-129 -108 0
-202 -106 0
-203 -107 0
-204 -108 0
-130 -109 0
-131 -110 0
-132 -111 0
-163 -109 0
-164 -110 0
-165 -111 0
-178 -109 0
-179 -110 0
-180 -111 0
-169 -112 0
-170 -113 0
-171 -114 0
-133 -115 0
-134 -116 0
-135 -117 0
-157 -115 0
-158 -116 0
-159 -117 0
-127 -118 0
-128 -119 0
-129 -120 0
-172 -118 0
-173 -119 0
-174 -120 0
-202 -118 0
-203 -119 0
-204 -120 0
-205 -118 0
-206 -119 0
-207 -120 0
-124 -121 0
-125 -122 0
-126 -123 0
-172 -121 0
-173 -122 0
-174 -123 0
-181 -121 0
-182 -122 0
-183 -123 0
-199 -121 0
-200 -122 0
-201 -123 0
-142 -124 0
-143 -125 0
-144 -126 0
-193 -124 0
-194 -125 0
-195 -126 0
-214 -127 0
-215 -128 0
-216 -129 0
-223 -127 0
-224 -128 0
-225 -129 0
-142 -130 0
-143 -131 0
-144 -132 0
-145 -133 0
-146 -134 0
-147 -135 0
-169 -133 0
-170 -134 0
-171 -135 0
-190 -133 0
-191 -134 0
-192 -135 0
-193 -133 0
-194 -134 0
-195 -135 0
-199 -133 0
-200 -134 0
-201 -135 0
-172 -142 0
-173 -143 0
-174 -144 0
-169 -145 0
-170 -146 0
-171 -147 0
-196 -145 0
-197 -146 0
-198 -147 0
-151 -148 0
-152 -149 0
-153 -150 0
-172 -151 0
-173 -152 0
-174 -153 0
-160 -154 0
-161 -155 0
-162 -156 0
-190 -154 0
-191 -155 0
-192 -156 0
-178 -157 0
-179 -158 0
-180 -159 0
-205 -160 0
-206 -161 0
-207 -162 0
-208 -160 0
-209 -161 0
-210 -162 0
-184 -163 0
-185 -164 0
-186 -165 0
-211 -163 0
-212 -164 0
-213 -165 0
-223 -163 0
-224 -164 0
-225 -165 0
-193 -172 0
-194 -173 0
-195 -174 0
-223 -175 0
-224 -176 0
-225 -177 0
-205 -178 0
-206 -179 0
-207 -180 0
-217 -178 0
-218 -179 0
-219 -180 0
-211 -181 0
-212 -182 0
-213 -183 0
-205 -193 0
-206 -194 0
-207 -195 0
-214 -193 0
-215 -194 0
-216 -195 0
-217 -193 0
-218 -194 0
-219 -195 0
-217 -196 0
-218 -197 0
-219 -198 0
-205 -199 0
-206 -200 0
-207 -201 0
-211 -202 0
-212 -203 0
-213 -204 0
-223 -202 0
-224 -203 0
-225 -204 0
-214 -208 0
-215 -209 0
-216 -210 0
